p cnf 31 26
-75 -728
-75 -1646
-98 -1646
-98 -1844
-118 -2118
-228 -717
-228 -1867
-257 -802
-388 -623
-467 -874
-467 -2071
-479 -970
-479 -1966
-717 -1117
-802 -1117
-825 -1601
-874 -1489
-874 -1983
-1039 -1357
-1039 -2433
-1047 -1117
-1117 -1601
-1117 -1646
-1844 -2418
-1867 -1966
-1899 -2433

